StudentsNr = 10;
InstructorsNr = 28;
DaysNr = 1;
SlotsPerDay = 15;
AvailabilitySlotsLenght = 5;
RoomNr = 2;
ProgrammNr = 1;
DegreeNr = 2;
RolesNr = 4;
CoursesNr = 4;
InstructorsProgramm = [{1}, {1}, {1}, {1}, {1}, {1}, {1}, {1}, {1}, {1}, {1}, {1}, {1}, {1}, {1}, {1}, {1}, {1}, {1}, {1}, {1}, {1}, {1}, {1}, {1}, {1}, {1}, {1}];
InstructorRolesPerProgramm = [|{5, 10, 11, 13, 15, 16, 18, 20, 21, 22, 25, 26, 28}, {4, 5, 7, 8, 12, 13, 14, 18, 20}, {1, 5, 6, 8, 9, 10, 12, 14, 15, 16, 20, 21, 22, 24, 26, 27}, {5, 8, 10, 11, 13, 14, 20, 21, 22, 24, 25, 26}|];
InstructorsAvailability = [|0, 0, 0, |1, 1, 0, |0, 0, 1, |1, 1, 1, |1, 1, 1, |0, 0, 1, |0, 1, 1, |1, 1, 1, |1, 1, 0, |1, 1, 1, |1, 1, 1, |1, 0, 1, |1, 1, 1, |1, 1, 1, |1, 1, 1, |1, 1, 1, |0, 1, 1, |0, 1, 1, |0, 1, 1, |0, 1, 1, |1, 1, 1, |1, 1, 1, |0, 0, 1, |0, 0, 1, |1, 1, 1, |0, 1, 0, |0, 0, 0, |0, 1, 0|];
StudentsProgramm = [1, 1, 1, 1, 1, 1, 1, 1, 1, 1];
StudentsDegree = [1, 1, 1, 1, 1, 1, 1, 1, 1, 2];
StudentsSupervisorId = [4, 5, 11, 15, 19, 16, 14, 11, 20, 22];
StudentsCourseIds = [{3}, {3}, {1}, {2}, {3}, {3}, {3}, {4}, {1}, {2, 3}];
StudentsAvailability = [|0, 0, 0, |0, 0, 0, |0, 0, 1, |0, 0, 0, |0, 0, 1, |1, 1, 1, |1, 1, 1, |0, 0, 1, |1, 1, 1, |0, 1, 1|];
TheoryticalMinCard = [0, 0, 0, 0, 1, 0, 0, 0, 0, 0];
CoursesInstructorIds = [{3, 4, 5, 6, 10, 12, 14, 19, 24}, {10, 14, 15, 17, 22, 27, 28}, {5, 7, 9, 12, 22, 23, 26}, {12, 13, 15, 22}];
RolesDemands = [7, 3, 8, 12];
RolesContinuity = [];
ExamLen = [1, 1, 1, 1, 1, 1, 1, 1, 1, 2];
LunchTsMinLen = 0;
LunchStarts = [6..10];
SupervisorAvailable = 5;
OptimalLunchLenght = [0, 1];
OptimalStartTs = [2, 0];
OptimalFinishTs = [0, 15];
MinimizeRooms = 500;
RolesSoftContinuity = [|1, 2, 3, 4|0, 2, 0, 2|];
SameDegreeInRoom = 0;
Mergeability = 0;
